 vasp.6.3.0 20Jan22 (build Month Day Year Time) complex

 POSCAR: TransitionMetal
  positions in direct lattice
  velocities in cartesian coordinates
 exchange correlation table for  LEXCH =        8
   RHO(1)=    0.500       N(1)  =     2000
   RHO(2)=  100.500       N(2)  =     4000

 ion  position               nearest neighbor table
   1  0.575  0.419  0.752-  25 1.93  13 1.93  21 1.95  17 1.96   9 1.96   5 1.97
   2  0.426  0.582  0.249-  26 1.93  14 1.93  22 1.95  18 1.96  10 1.97   6 1.97
   3  0.419  0.919  0.749-  27 1.93  15 1.94  23 1.96  19 1.97  11 1.97   7 1.97
   4  0.588  0.082  0.252-  12 2.00   8 2.01  16 2.13  28 2.13
   5  0.661  0.357  0.710-  57 1.30   1 1.97
   6  0.340  0.642  0.292-  58 1.30   2 1.97
   7  0.333  0.855  0.790-  59 1.30   3 1.97
   8  0.670  0.160  0.215-  60 1.30   4 2.01
   9  0.677  0.484  0.800- 145 1.30   1 1.96
  10  0.324  0.517  0.199- 146 1.30   2 1.97
  11  0.316  0.984  0.700- 147 1.30   3 1.97
  12  0.686  0.004  0.293- 148 1.30   4 2.00
  13  0.591  0.349  0.836-  85 1.32  89 1.41   1 1.93
  14  0.409  0.653  0.165-  86 1.32  90 1.41   2 1.93
  15  0.405  0.851  0.665-  87 1.32  91 1.41   3 1.94
  16  0.593  0.165  0.338-  88 1.32  92 1.40   4 2.13
  17  0.492  0.477  0.799- 113 1.33 109 1.38   1 1.96
  18  0.508  0.524  0.200- 114 1.34 110 1.38   2 1.96
  19  0.501  0.980  0.701- 115 1.33 111 1.38   3 1.97
  20  0.496  0.028  0.315- 116 1.33 112 1.37
  21  0.477  0.354  0.697- 209 1.33 205 1.38   1 1.95
  22  0.525  0.645  0.305- 210 1.33 206 1.38   2 1.95
  23  0.518  0.855  0.805- 211 1.33 207 1.38   3 1.96
  24  0.472  0.141  0.182- 212 1.33 208 1.36
  25  0.549  0.490  0.668- 181 1.32 185 1.41   1 1.93
  26  0.452  0.509  0.331- 182 1.32 186 1.41   2 1.93
  27  0.443  0.989  0.832- 183 1.32 187 1.41   3 1.93
  28  0.547  0.997  0.167- 184 1.32 188 1.40   4 2.13
  29  0.944  0.115  0.908- 221 1.10 229 1.10 225 1.10  41 1.54
  30  0.052  0.882  0.099- 222 1.10 230 1.10 226 1.10  42 1.54
  31  0.048  0.621  0.590- 223 1.10 231 1.10 227 1.10  43 1.54
  32  0.960  0.382  0.420- 224 1.10 232 1.10 228 1.10  44 1.54
  33  0.824  0.018  0.851- 233 1.10 241 1.10 237 1.10  41 1.54
  34  0.172  0.981  0.152- 234 1.10 242 1.10 238 1.10  42 1.54
  35  0.169  0.521  0.644- 235 1.10 243 1.10 239 1.10  43 1.54
  36  0.844  0.486  0.366- 236 1.10 244 1.10 240 1.10  44 1.54
  37  0.944  0.057  0.787- 253 1.10 249 1.10 245 1.10  41 1.54
  38  0.057  0.942  0.220- 254 1.10 250 1.10 246 1.10  42 1.54
  39  0.051  0.557  0.710- 255 1.10 251 1.10 247 1.10  43 1.54
  40  0.963  0.447  0.301- 252 1.10 256 1.10 248 1.10  44 1.54
  41  0.884  0.089  0.836-  37 1.54  45 1.54  33 1.54  29 1.54
  42  0.115  0.910  0.169-  38 1.54  46 1.54  34 1.54  30 1.54
  43  0.110  0.591  0.661-  39 1.54  47 1.54  35 1.54  31 1.54
  44  0.901  0.414  0.349-  40 1.54  48 1.54  36 1.54  32 1.54
  45  0.825  0.161  0.802-  65 1.38  49 1.42  41 1.54
  46  0.175  0.839  0.202-  66 1.38  50 1.42  42 1.54
  47  0.169  0.662  0.696-  67 1.38  51 1.42  43 1.54
  48  0.839  0.346  0.312-  68 1.38  52 1.42  44 1.54
  49  0.828  0.196  0.734- 257 1.09  53 1.39  45 1.42
  50  0.173  0.803  0.270- 258 1.09  54 1.39  46 1.42
  51  0.165  0.694  0.764- 259 1.09  55 1.39  47 1.42
  52  0.842  0.315  0.244- 260 1.09  56 1.39  48 1.42
  53  0.775  0.261  0.702-  49 1.39  57 1.45  73 1.54
  54  0.226  0.737  0.301-  50 1.39  58 1.45  74 1.54
  55  0.218  0.758  0.796-  51 1.39  59 1.45  75 1.54
  56  0.788  0.253  0.209-  52 1.39  60 1.44  76 1.54
  57  0.712  0.297  0.740-   5 1.30  53 1.45  61 1.45
  58  0.290  0.703  0.263-   6 1.30  54 1.45  62 1.45
  59  0.282  0.795  0.760-   7 1.30  55 1.45  63 1.45
  60  0.722  0.217  0.245-   8 1.30  56 1.44  64 1.45
[...]
 422  0.743  0.615  0.512- 198 1.09
 423  0.741  0.886  0.009- 199 1.09
 424  0.250  0.091  0.982- 200 1.09
 425  0.481  0.252  0.762- 209 1.09
 426  0.522  0.747  0.241- 210 1.09
 427  0.516  0.754  0.742- 211 1.09
 428  0.474  0.249  0.236- 212 1.09
 429  0.350  0.184  0.685- 213 1.09
 430  0.652  0.814  0.319- 214 1.09
 431  0.649  0.687  0.820- 215 1.09
 432  0.338  0.307  0.155- 216 1.09
 433  0.268  0.255  0.573- 217 1.09
 434  0.733  0.742  0.431- 218 1.09
 435  0.731  0.759  0.930- 219 1.09
 436  0.257  0.223  0.052- 220 1.09

  LATTYP: Found a triclinic cell.
 ALAT       =    19.0640552370
 B/A-ratio  =     0.8043974609
 C/A-ratio  =     0.8594703438
 COS(alpha) =     0.0009316319
 COS(beta)  =     0.0114343219
 COS(gamma) =     0.2155624169

  Lattice vectors:

 A1 = (   3.8978405392,  -0.1107211662, -18.6609962766)
 A2 = (  15.3340874864,  -0.0076675117,  -0.1740919904)
 A3 = (   0.0060178947, -16.3847254938,  -0.0929254728)

Analysis of symmetry for initial positions (statically):
 Subroutine PRICEL returns:
 Original cell was already a primitive cell.

 Routine SETGRP: Setting up the symmetry group for a
 triclinic supercell.

 Subroutine GETGRP returns: Found  1 space group operations
 (whereof  1 operations were pure point group operations)
 out of a pool of  2 trial point group operations.

The static configuration has the point symmetry C_1 .

Analysis of symmetry for dynamics (positions and initial velocities):
 Subroutine PRICEL returns:
 Original cell was already a primitive cell.

[...]

The dynamic configuration has the point symmetry C_1 .

Analysis of structural, dynamic, and magnetic symmetry:
 Subroutine PRICEL returns:
 Original cell was already a primitive cell.

 Routine SETGRP: Setting up the symmetry group for a
 triclinic supercell.

 Subroutine GETGRP returns: Found  1 space group operations
 (whereof  1 operations were pure point group operations)
 out of a pool of  2 trial point group operations.

The overall configuration has the point symmetry C_1 .

 Subroutine INISYM returns: Found  1 space group operations
 (whereof  1 operations are pure point group operations),
 and found     1 'primitive' translations

                                     Primitive cell

  volume of cell :    4677.2044

  direct lattice vectors                    reciprocal lattice vectors
    15.334087486 -0.007667512 -0.174091990     0.065369179 -0.000053431  0.013654392
    -0.006017895 16.384725494  0.092925473     0.000026470  0.061034486 -0.000356606
    -3.897840539  0.110721166 18.660996277     0.000609710 -0.000304430  0.053716867

  length of vectors
    15.335077628 16.384990109 19.064055237     0.066780048  0.061035533  0.053721190

  position of ions in fractional coordinates (direct lattice)
     0.574653439  0.418631893  0.751763593
     0.426262339  0.581599761  0.248745095
     0.419204561  0.918955963  0.749281663
     0.587668224  0.081772370  0.251866347
     0.661404285  0.357216157  0.710464888
     0.340385423  0.642371456  0.291612526
     0.333138427  0.854587038  0.790282771
     0.669722499  0.159593067  0.215237657
     0.676920829  0.484401490  0.799828222
     0.323632678  0.516908618  0.199442456
     0.315606087  0.984166144  0.700495567
     0.685803848  0.003658029  0.292749368
     0.591432468  0.348980256  0.836236638
     0.409232456  0.652889019  0.165285193
     0.404932457  0.850727860  0.665370139
     0.592777116  0.164812216  0.337710240
     0.492176378  0.477007817  0.799359788
     0.507940635  0.524128001  0.199938665
     0.500691217  0.980160272  0.701419636
     0.495595421  0.027582157  0.315302876
     0.476613475  0.354159458  0.696811267
     0.524552776  0.644785288  0.304742373
     0.518461232  0.855220230  0.805248177
     0.471745961  0.141002902  0.181978673
     0.548930998  0.489963517  0.668331516
     0.451615227  0.508505899  0.330979075
     0.443157597  0.989053012  0.832198208
     0.547309471  0.996681557  0.167342089
     0.944446597  0.114902409  0.907796290
     0.051770873  0.882154702  0.099084509
     0.048032329  0.621281895  0.590464776
     0.959508053  0.381848456  0.419739982
     0.824200353  0.017581635  0.850679498
     0.172339257  0.981413251  0.151572102
     0.168531401  0.521076756  0.643776239
     0.843859484  0.486048224  0.365585214
     0.943945918  0.057388426  0.786874124
     0.057002297  0.941938359  0.219880228
     0.050817556  0.556777097  0.710318801
     0.962590967  0.446857455  0.301146999
     0.884073583  0.088701250  0.835909464
     0.114574503  0.910162866  0.169268845
     0.109596496  0.591140075  0.661071716
     0.900837958  0.414262461  0.348692721
     0.825277958  0.161103333  0.802331042
     0.175129496  0.838702445  0.202439474
     0.169009398  0.661926889  0.695629533
     0.839207211  0.345691356  0.312441728
     0.827840322  0.195840627  0.734347523
     0.172837048  0.802614921  0.269958075
     0.165479337  0.694476237  0.763540855
     0.841880594  0.315114133  0.243586106
     0.775405355  0.261159336  0.702321515
     0.226016944  0.737402604  0.301214414
     0.217986002  0.758495649  0.796489468
     0.787615166  0.252889587  0.209317629
     0.712114872  0.296937054  0.739575844
     0.289570006  0.703016877  0.263483655
     0.282365875  0.795432629  0.760314215
     0.722426292  0.217270964  0.245013836
[...]
     0.742549490  0.614837358  0.512493149
     0.741052082  0.885614813  0.009328786
     0.249631988  0.090570966  0.982485120
     0.480592361  0.252428264  0.762078770
     0.521704118  0.747434434  0.240660666
     0.515633978  0.753552090  0.742029623
     0.474476842  0.249037137  0.236324629
     0.349535937  0.184419188  0.684818887
     0.652334894  0.814132153  0.319491587
     0.648567017  0.687129205  0.819866893
     0.337810719  0.306992116  0.154816400
     0.267504679  0.255007164  0.572674970
     0.732894044  0.742016840  0.431393080
     0.730927725  0.758916670  0.929749233
     0.257396826  0.222737185  0.051697373

  ion indices of the primitive-cell ions
   primitive index   ion index
                 1           1
                 2           2
                 3           3
                 4           4
                 5           5
                 6           6
                 7           7
                 8           8
                 9           9
                10          10
                11          11
                12          12
                13          13
                14          14
                15          15
                16          16
                17          17
                18          18
                19          19
                20          20
                21          21
                22          22
                23          23
                24          24
                25          25
                26          26
                27          27
                28          28
                29          29
                30          30
                31          31
                32          32
                33          33
                34          34
                35          35
                36          36
                37          37
                38          38
                39          39
                40          40
                41          41
                42          42
                43          43
                44          44
                45          45
[...]
   -.215E+03 -.773E+02 0.220E+03   0.199E+03 0.501E+02 -.244E+03   0.162E+02 0.272E+02 0.245E+02
   -.269E+03 -.983E+02 -.311E+03   0.257E+03 0.678E+02 0.337E+03   0.121E+02 0.305E+02 -.253E+02
   0.266E+03 0.977E+02 0.312E+03   -.254E+03 -.666E+02 -.336E+03   -.120E+02 -.311E+02 0.246E+02
   0.270E+03 -.946E+02 0.310E+03   -.257E+03 0.643E+02 -.335E+03   -.126E+02 0.304E+02 0.253E+02
   -.221E+03 0.732E+02 -.263E+03   0.207E+03 -.436E+02 0.286E+03   0.141E+02 -.297E+02 -.225E+02
   -.378E+02 0.179E+03 -.272E+03   0.392E+02 -.167E+03 0.255E+03   -.136E+01 -.124E+02 0.176E+02
   0.376E+02 -.183E+03 0.257E+03   -.387E+02 0.171E+03 -.239E+03   0.115E+01 0.125E+02 -.176E+02
   0.309E+02 0.172E+03 0.269E+03   -.327E+02 -.160E+03 -.252E+03   0.180E+01 -.122E+02 -.177E+02
   -.262E+02 -.125E+03 -.163E+03   0.262E+02 0.113E+03 0.142E+03   0.874E-02 0.120E+02 0.209E+02
   0.178E+03 -.157E+03 -.910E+02   -.160E+03 0.149E+03 0.792E+02   -.177E+02 0.817E+01 0.118E+02
   -.178E+03 0.161E+03 0.901E+02   0.161E+03 -.153E+03 -.781E+02   0.175E+02 -.807E+01 -.120E+02
   -.173E+03 -.160E+03 0.901E+02   0.155E+03 0.152E+03 -.784E+02   0.176E+02 0.860E+01 -.117E+02
   0.845E+02 0.106E+03 -.559E+02   -.636E+02 -.984E+02 0.409E+02   -.209E+02 -.753E+01 0.151E+02
   0.171E+03 0.171E+03 0.104E+03   -.155E+03 -.161E+03 -.911E+02   -.156E+02 -.980E+01 -.134E+02
   -.173E+03 -.177E+03 -.114E+03   0.157E+03 0.167E+03 0.100E+03   0.155E+02 0.960E+01 0.136E+02
   -.171E+03 0.167E+03 -.112E+03   0.155E+03 -.158E+03 0.987E+02   0.158E+02 -.944E+01 0.134E+02
   0.973E+02 -.106E+03 0.764E+02   -.784E+02 0.964E+02 -.600E+02   -.189E+02 0.922E+01 -.164E+02
   -.175E+02 -.173E+03 0.234E+03   0.200E+02 0.160E+03 -.217E+03   -.244E+01 0.135E+02 -.168E+02
   0.153E+02 0.174E+03 -.227E+03   -.177E+02 -.160E+03 0.211E+03   0.240E+01 -.137E+02 0.166E+02
   0.241E+02 -.169E+03 -.242E+03   -.264E+02 0.156E+03 0.225E+03   0.225E+01 0.136E+02 0.167E+02
   0.296E+01 0.122E+03 0.135E+03   -.151E+01 -.108E+03 -.115E+03   -.146E+01 -.141E+02 -.196E+02
   -.984E+02 -.734E+01 -.167E+03   0.980E+02 0.723E+01 0.166E+03   0.311E+00 0.105E+00 0.770E+00
   0.104E+03 0.628E+01 0.163E+03   -.103E+03 -.615E+01 -.162E+03   -.365E+00 -.127E+00 -.749E+00
   0.101E+03 -.168E+02 0.157E+03   -.101E+03 0.167E+02 -.156E+03   -.328E+00 0.124E+00 -.741E+00
   -.916E+02 0.246E+02 -.154E+03   0.913E+02 -.244E+02 0.154E+03   0.309E+00 -.143E+00 0.741E+00
   -.359E+02 0.114E+03 -.803E+02   0.361E+02 -.113E+03 0.800E+02   -.252E+00 -.576E+00 0.266E+00
   0.367E+02 -.115E+03 0.754E+02   -.369E+02 0.114E+03 -.752E+02   0.203E+00 0.569E+00 -.264E+00
   0.334E+02 0.114E+03 0.788E+02   -.337E+02 -.113E+03 -.785E+02   0.275E+00 -.557E+00 -.306E+00
   -.274E+02 -.116E+03 -.770E+02   0.276E+02 0.116E+03 0.767E+02   -.232E+00 0.575E+00 0.284E+00
   -.109E+03 0.781E+02 0.373E+02   0.109E+03 -.778E+02 -.368E+02   0.376E+00 -.304E+00 -.427E+00
   0.108E+03 -.805E+02 -.385E+02   -.108E+03 0.802E+02 0.380E+02   -.394E+00 0.314E+00 0.443E+00
   0.111E+03 0.788E+02 -.405E+02   -.111E+03 -.785E+02 0.400E+02   -.382E+00 -.302E+00 0.416E+00
   -.103E+03 -.715E+02 0.344E+02   0.103E+03 0.712E+02 -.340E+02   0.357E+00 0.279E+00 -.377E+00
   -.844E+02 0.511E+02 -.616E+02   0.846E+02 -.514E+02 0.616E+02   -.178E+00 0.291E+00 0.317E-01
   0.840E+02 -.523E+02 0.568E+02   -.841E+02 0.526E+02 -.568E+02   0.134E+00 -.293E+00 -.257E-01
   0.844E+02 0.481E+02 0.568E+02   -.846E+02 -.484E+02 -.567E+02   0.173E+00 0.293E+00 -.193E-01
   -.762E+02 -.425E+02 -.566E+02   0.764E+02 0.428E+02 0.566E+02   -.221E+00 -.312E+00 0.241E-01
   -.116E+03 0.538E+02 -.538E+02   0.117E+03 -.550E+02 0.543E+02   -.941E+00 0.119E+01 -.493E+00
   0.108E+03 -.564E+02 0.446E+02   -.109E+03 0.576E+02 -.451E+02   0.901E+00 -.120E+01 0.467E+00
   0.114E+03 0.500E+02 0.510E+02   -.115E+03 -.513E+02 -.515E+02   0.918E+00 0.120E+01 0.527E+00
   -.106E+03 -.394E+02 -.494E+02   0.107E+03 0.406E+02 0.500E+02   -.969E+00 -.113E+01 -.583E+00
   -.179E+03 0.827E+02 0.378E+02   0.180E+03 -.829E+02 -.380E+02   -.579E+00 0.210E+00 0.254E+00
   0.172E+03 -.816E+02 -.414E+02   -.173E+03 0.818E+02 0.416E+02   0.567E+00 -.196E+00 -.237E+00
   0.180E+03 0.782E+02 -.363E+02   -.181E+03 -.784E+02 0.365E+02   0.596E+00 0.216E+00 -.242E+00
   -.170E+03 -.694E+02 0.342E+02   0.170E+03 0.696E+02 -.344E+02   -.608E+00 -.238E+00 0.276E+00
   -.151E+03 0.541E+02 0.352E+02   0.152E+03 -.535E+02 -.364E+02   -.381E+00 -.584E+00 0.119E+01
   0.143E+03 -.559E+02 -.379E+02   -.143E+03 0.553E+02 0.391E+02   0.352E+00 0.596E+00 -.113E+01
   0.151E+03 0.488E+02 -.350E+02   -.151E+03 -.482E+02 0.362E+02   0.406E+00 -.591E+00 -.116E+01
   -.139E+03 -.358E+02 0.330E+02   0.139E+03 0.352E+02 -.342E+02   -.414E+00 0.634E+00 0.120E+01
   -.178E+03 0.130E+03 -.294E+02   0.181E+03 -.133E+03 0.309E+02   -.289E+01 0.344E+01 -.152E+01
   0.170E+03 -.136E+03 0.205E+02   -.173E+03 0.140E+03 -.220E+02   0.289E+01 -.347E+01 0.148E+01
   0.174E+03 0.126E+03 0.285E+02   -.177E+03 -.129E+03 -.302E+02   0.287E+01 0.338E+01 0.163E+01
   -.154E+03 -.101E+03 -.336E+02   0.157E+03 0.104E+03 0.353E+02   -.322E+01 -.347E+01 -.172E+01
[...]
   -.768E+02 0.142E+02 -.376E+02   0.810E+02 -.161E+02 0.410E+02   -.420E+01 0.195E+01 -.349E+01
   0.756E+02 -.172E+02 0.371E+02   -.797E+02 0.189E+02 -.408E+02   0.409E+01 -.173E+01 0.370E+01
   0.565E+01 0.575E+02 -.469E+02   -.378E+01 -.601E+02 0.519E+02   -.187E+01 0.255E+01 -.503E+01
   -.519E+01 -.598E+02 0.421E+02   0.337E+01 0.624E+02 -.472E+02   0.182E+01 -.262E+01 0.502E+01
   -.551E+01 0.575E+02 0.441E+02   0.363E+01 -.602E+02 -.491E+02   0.188E+01 0.265E+01 0.498E+01
   0.238E+00 -.529E+02 -.336E+02   0.175E+01 0.560E+02 0.382E+02   -.199E+01 -.308E+01 -.463E+01
   0.271E+02 0.313E+02 0.624E+01   -.293E+02 -.366E+02 -.459E+01   0.222E+01 0.523E+01 -.166E+01
   -.261E+02 -.347E+02 -.982E+01   0.283E+02 0.399E+02 0.824E+01   -.223E+01 -.524E+01 0.158E+01
   -.279E+02 0.315E+02 -.770E+01   0.302E+02 -.367E+02 0.608E+01   -.227E+01 0.522E+01 0.161E+01
   0.302E+02 -.347E+02 0.136E+02   -.325E+02 0.400E+02 -.125E+02   0.228E+01 -.532E+01 -.113E+01
   0.704E+02 0.214E+02 0.490E+02   -.745E+02 -.238E+02 -.523E+02   0.411E+01 0.243E+01 0.330E+01
   -.677E+02 -.234E+02 -.487E+02   0.718E+02 0.257E+02 0.521E+02   -.408E+01 -.238E+01 -.338E+01
   -.709E+02 0.192E+02 -.472E+02   0.751E+02 -.215E+02 0.504E+02   -.419E+01 0.232E+01 -.328E+01
   0.711E+02 -.199E+02 0.457E+02   -.753E+02 0.219E+02 -.492E+02   0.419E+01 -.196E+01 0.350E+01
   -.372E-02 0.646E+00 -.121E+01   0.216E-11 -.313E-12 -.266E-11   0.354E-02 -.647E+00 0.121E+01

 POSITION                                       TOTAL-FORCE (eV/Angst)
      5.87901      6.93800     13.96752        -0.000103     -0.000116      0.000007
      5.56328      9.55363      4.62167         0.000113     -0.000163      0.000200
      3.50201     15.13659     13.99476        -0.000417     -0.000128     -0.000163
      8.02913      1.36320      4.60537         0.000240      0.000235     -0.000020
      7.37060      5.92648     13.17603        -0.000143     -0.000061     -0.000091
      4.07898     10.55476      5.44221         0.000041      0.000291      0.000000
      2.02283     14.08712     14.76888         0.000073      0.000228      0.000236
      9.42966      2.63358      3.91479        -0.000066      0.000198     -0.000009
      7.25945      8.02015     14.85276        -0.000096     -0.000111      0.000244
      4.18211      8.48901      3.71349         0.000163      0.000199     -0.000370
      2.10319     16.20043     13.10845        -0.000284     -0.000039     -0.000237
      9.37506      0.08709      5.34394         0.000146     -0.000683      0.000125
      5.80746      5.80600     15.53447         0.000118      0.000058      0.000128
      5.62702     10.71257      3.07381         0.000002      0.000054     -0.000279
      3.61064     14.00951     12.42503        -0.000417      0.000308      0.000596
      7.77236      2.73325      6.21413         0.000048     -0.000135      0.000256
      4.42843      7.90037     14.87549        -0.000165     -0.000095      0.000454
      7.00632      8.60594      3.69133         0.000060      0.000463     -0.000355
      4.93772     16.13348     13.09310         0.000035     -0.000290     -0.000187
      6.37034      0.48304      5.80015         0.000173      0.000019     -0.000217
      4.59024      5.87630     12.95313        -0.000153     -0.000388      0.000012
      6.85182     10.59435      5.65539         0.000194      0.000555     -0.000158
      4.80625     14.09773     15.01595         0.000053     -0.000083     -0.000183
      6.52362      2.32683      3.32688         0.000275      0.000196      0.000539
      5.80936      8.09771     12.42170         0.000166     -0.000576      0.000177
      5.63194      8.36491      6.14503        -0.000097      0.000840     -0.000264
      3.54569     16.29411     15.54441        -0.000226     -0.000551     -0.000210
      7.73422     16.34469      3.12011         0.000139      0.000559      0.000153
     10.94309      1.97592     16.78664        -0.000315     -0.000109      0.000229
      0.40233     14.46444      1.92198         0.000078     -0.000028      0.000008
     -1.56874     10.24454     11.06803         0.000098     -0.000052     -0.000122
     13.07480      6.29560      7.70121        -0.000040      0.000078      0.000095
      9.32244      0.37594     15.73267        -0.000437     -0.000199     -0.000058
      2.04596     16.09565      2.88968         0.000430      0.000137     -0.000057
      0.07180      8.60769     12.03259         0.000239     -0.000182      0.000065
     11.51190      7.99777      6.72044        -0.000021      0.000028      0.000124
     11.40709      1.02018     14.52485        -0.000028     -0.000163      0.000145
      0.01135     15.45731      4.18079        -0.000041      0.000164      0.000034
     -1.99282      9.20090     13.29815        -0.000153     -0.000107     -0.000054
     13.58394      7.34760      5.49365         0.000076     -0.000051      0.000203
     10.29769      1.53912     15.45324        -0.000262     -0.000397      0.000283
      1.09164     14.93063      3.22336         0.000333      0.000376     -0.000056
     -0.89975      9.75802     12.37211         0.000037     -0.000460     -0.000305
     12.45189      6.81928      6.38862         0.000062      0.000328      0.000141
      9.52656      2.72214     14.84359        -0.000129      0.000264      0.000026
      1.89133     13.76298      3.82517         0.000179     -0.000262     -0.000049
     -0.12383     10.92122     13.01323         0.000289      0.000378     -0.000057
     11.64855      5.69222      5.71650         0.000098      0.000174      0.000033
      9.83063      3.28376     13.57773        -0.000270      0.000236     -0.000131
      1.59321     13.17919      5.08218         0.000036     -0.000043      0.000199
     -0.44287     11.46207     14.28416         0.000219      0.000135      0.000343
     11.95811      5.18357      4.42828         0.000114      0.000239     -0.000120
      9.15102      4.35084     12.99530        -0.000106      0.000231     -0.000166
      2.28724     12.11376      5.65014         0.000060     -0.000278      0.000282
      0.23346     12.51426     14.89582         0.000338      0.000422     -0.000009
     11.25995      4.16066      3.79246        -0.000082      0.000110      0.000153
      8.03510      4.94166     13.70484         0.000290     -0.000339      0.000093
      3.40904     11.54569      4.93178        -0.000154      0.000158      0.000089
      1.36145     13.11496     14.21298        -0.000374     -0.000401     -0.000252
     10.12142      3.58151      4.46662        -0.000301     -0.000072      0.000090
[...]
      9.38500     10.12499      9.49149        -0.000057      0.000023      0.000006
     11.32167     14.50591      0.12737        -0.000136      0.000111      0.000036
     -0.00224      1.59085     18.29911         0.000516     -0.000192     -0.000146
      4.39746      4.21666     14.16094        -0.000402      0.000488     -0.000248
      7.05730     12.26915      4.46960         0.000406     -0.000561      0.000493
      5.00993     12.42495     13.82727         0.000316      0.000410      0.000125
      6.35302      4.10293      4.35059        -0.000351     -0.000091      0.000074
      2.68939      3.09480     12.73569        -0.000120      0.000465      0.000084
      8.75273     13.36970      5.92412         0.000078     -0.000379     -0.000025
      6.74534     11.34423     15.25047         0.000355      0.000078     -0.000169
      4.57472      5.04453      2.85875        -0.000262     -0.000137     -0.000017
      1.86821      4.23958     10.66381         0.000138     -0.000175     -0.000398
      9.55229     12.19989      7.99159        -0.000021      0.000331      0.000597
      7.57953     12.53198     17.29332        -0.000216     -0.000254      0.000539
      3.74410      3.65324      0.94061         0.000143     -0.000009     -0.000210
    total drift:                               -0.000180     -0.000678      0.000411

  FREE ENERGIE OF THE ION-ELECTRON SYSTEM (eV)
  free  energy   TOTEN  =     -2749.53190519 eV

  energy  without entropy=    -2749.53190519  energy(sigma->0) =    -2749.53190519

 reached required accuracy - stopping structural energy minimisation

 total charge

[...]

 magnetization (x)

# of ion       s       p       d       tot
    1        0.000   0.000   0.000   0.000
    2       -0.000  -0.000  -0.000  -0.000
    3        0.000   0.000   0.000   0.000
    4        0.011   0.012   3.559   3.581
    5        0.000   0.000   0.000   0.000
    6        0.000   0.000   0.000   0.000
    7       -0.000  -0.000   0.000  -0.000
    8        0.008   0.067   0.000   0.074
    9       -0.000  -0.000   0.000  -0.000
   10        0.000   0.000   0.000   0.000
   11       -0.000   0.000   0.000   0.000
   12        0.008   0.070   0.000   0.078
   13       -0.000   0.000   0.000   0.000
   14       -0.000  -0.000   0.000  -0.000
   15        0.000   0.000   0.000   0.000
   16        0.008   0.023   0.000   0.031
   17        0.000   0.000   0.000   0.000
   18        0.000   0.000   0.000   0.000
   19       -0.000  -0.000   0.000  -0.000
   20        0.009   0.028   0.000   0.037
   21        0.000   0.000   0.000   0.000
   22       -0.000  -0.000   0.000  -0.000
   23        0.000   0.000   0.000   0.000
   24        0.009   0.028   0.000   0.037
   25        0.000   0.000   0.000   0.000
   26        0.000   0.000   0.000   0.000
   27       -0.000  -0.000   0.000  -0.000
   28        0.009   0.024   0.000   0.032
   29        0.000   0.000   0.000   0.000
   30        0.000   0.000   0.000   0.000
   31        0.000   0.000   0.000   0.000
   32        0.000   0.000   0.000   0.000
   33        0.000   0.000   0.000   0.000
   34       -0.000  -0.000   0.000  -0.000
   35        0.000   0.000   0.000   0.000
   36        0.000   0.000   0.000   0.000
   37        0.000   0.000   0.000   0.000
   38       -0.000  -0.000   0.000  -0.000
   39        0.000  -0.000   0.000   0.000
   40        0.000   0.000   0.000   0.000
   41        0.000   0.000   0.000   0.000
   42       -0.000  -0.000   0.000  -0.000
   43        0.000   0.000   0.000   0.000
   44       -0.000  -0.000   0.000  -0.000
   45       -0.000  -0.000   0.000  -0.000
   46        0.000   0.000   0.000   0.000
   47        0.000   0.000   0.000   0.000
   48        0.000   0.005   0.000   0.006
   49        0.000   0.000   0.000   0.000
   50        0.000   0.000   0.000   0.000
   51       -0.000  -0.000   0.000  -0.000
   52       -0.000  -0.007   0.000  -0.008
   53        0.000   0.000   0.000   0.000
   54        0.000   0.000   0.000   0.000
   55        0.000   0.000   0.000   0.000
   56        0.001   0.008   0.000   0.010
   57        0.000   0.000   0.000   0.000
   58        0.000   0.000   0.000   0.000
   59       -0.000  -0.000   0.000  -0.000
   60        0.000  -0.007   0.000  -0.007
[...]
  422       -0.000   0.000   0.000  -0.000
  423        0.000  -0.000   0.000   0.000
  424        0.000   0.000   0.000   0.000
  425       -0.000  -0.000   0.000  -0.000
  426       -0.000  -0.000   0.000  -0.000
  427        0.000  -0.000   0.000   0.000
  428        0.001  -0.000   0.000   0.001
  429       -0.000   0.000   0.000   0.000
  430        0.000  -0.000   0.000  -0.000
  431       -0.000   0.000   0.000  -0.000
  432        0.000   0.000   0.000   0.000
  433        0.000  -0.000   0.000   0.000
  434       -0.000  -0.000   0.000  -0.000
  435        0.000  -0.000   0.000   0.000
  436        0.000  -0.000   0.000   0.000
tot          0.076   0.190   3.559   3.824