 vasp.6.3.0 20Jan22 (build Month Day Year Time) complex

 POSCAR: TransitionMetal
  positions in direct lattice
  velocities in cartesian coordinates
 exchange correlation table for  LEXCH =        8
   RHO(1)=    0.500       N(1)  =     2000
   RHO(2)=  100.500       N(2)  =     4000

 ion  position               nearest neighbor table
   1  0.585  0.415  0.752-   9 2.00   5 2.01  13 2.13  25 2.13
   2  0.422  0.582  0.248-  26 1.94  14 1.94  22 1.96  18 1.97  10 1.97   6 1.97
   3  0.415  0.915  0.748-  11 2.00   7 2.01  15 2.13  27 2.13
   4  0.578  0.082  0.252-  28 1.94  16 1.94  24 1.96  20 1.97  12 1.97   8 1.97
   5  0.666  0.337  0.714-  57 1.30   1 2.01
   6  0.336  0.646  0.288-  58 1.30   2 1.97
   7  0.334  0.837  0.786-  59 1.30   3 2.01
   8  0.664  0.146  0.212-  60 1.30   4 1.97
   9  0.683  0.492  0.793- 145 1.30   1 2.00
  10  0.319  0.518  0.199- 146 1.30   2 1.97
  11  0.317  0.992  0.707- 147 1.30   3 2.00
  12  0.681  0.018  0.301- 148 1.30   4 1.97
  13  0.592  0.331  0.839-  85 1.32  89 1.40   1 2.13
  14  0.408  0.651  0.163-  86 1.32  90 1.41   2 1.94
  15  0.408  0.831  0.661-  87 1.32  91 1.40   3 2.13
  16  0.592  0.151  0.337-  88 1.32  92 1.41   4 1.94
  17  0.495  0.468  0.816- 113 1.33 109 1.36
  18  0.504  0.522  0.200- 114 1.33 110 1.38   2 1.97
  19  0.505  0.968  0.684- 115 1.33 111 1.36
  20  0.496  0.022  0.300- 116 1.33 112 1.38   4 1.97
  21  0.469  0.357  0.683- 209 1.33 205 1.36
  22  0.521  0.645  0.303- 210 1.33 206 1.38   2 1.96
  23  0.531  0.857  0.817- 211 1.33 207 1.36
  24  0.479  0.145  0.197- 212 1.33 208 1.38   4 1.96
  25  0.546  0.501  0.668- 181 1.32 185 1.40   1 2.13
  26  0.445  0.512  0.331- 182 1.32 186 1.41   2 1.94
  27  0.454  0.001  0.832- 183 1.32 187 1.40   3 2.13
  28  0.555  0.012  0.169- 184 1.32 188 1.41   4 1.94
  29  0.961  0.119  0.918- 221 1.10 229 1.10 225 1.10  41 1.54
  30  0.061  0.887  0.084- 222 1.10 230 1.10 226 1.10  42 1.54
  31  0.039  0.619  0.582- 223 1.10 231 1.10 227 1.10  43 1.54
  32  0.939  0.387  0.416- 224 1.10 232 1.10 228 1.10  44 1.54
  33  0.847  0.012  0.867- 233 1.10 241 1.10 237 1.10  41 1.54
  34  0.176  0.985  0.148- 234 1.10 242 1.10 238 1.10  42 1.54
  35  0.153  0.512  0.633- 235 1.10 243 1.10 239 1.10  43 1.54
  36  0.824  0.485  0.352- 236 1.10 244 1.10 240 1.10  44 1.54
  37  0.962  0.053  0.799- 253 1.10 249 1.10 245 1.10  41 1.54
  38  0.052  0.942  0.205- 254 1.10 250 1.10 246 1.10  42 1.54
  39  0.038  0.553  0.701- 255 1.10 251 1.10 247 1.10  43 1.54
  40  0.948  0.442  0.295- 256 1.10 252 1.10 248 1.10  44 1.54
  41  0.902  0.085  0.848-  37 1.54  45 1.54  33 1.54  29 1.54
  42  0.116  0.913  0.159-  38 1.54  46 1.54  34 1.54  30 1.54
  43  0.098  0.585  0.652-  39 1.54  47 1.54  35 1.54  31 1.54
  44  0.884  0.413  0.341-  40 1.54  48 1.54  36 1.54  32 1.54
  45  0.838  0.152  0.811-  65 1.38  49 1.42  41 1.54
  46  0.174  0.841  0.193-  66 1.38  50 1.42  42 1.54
  47  0.162  0.652  0.689-  67 1.38  51 1.42  43 1.54
  48  0.826  0.341  0.307-  68 1.38  52 1.42  44 1.54
  49  0.840  0.184  0.742- 257 1.09  53 1.39  45 1.42
  50  0.169  0.807  0.261- 258 1.09  54 1.39  46 1.42
  51  0.160  0.684  0.758- 259 1.09  55 1.39  47 1.42
  52  0.831  0.307  0.239- 260 1.09  56 1.39  48 1.42
  53  0.785  0.246  0.708-  49 1.39  57 1.44  73 1.54
  54  0.221  0.743  0.294-  50 1.39  58 1.45  74 1.54
  55  0.215  0.746  0.792-  51 1.39  59 1.44  75 1.54
  56  0.779  0.243  0.206-  52 1.39  60 1.45  76 1.54
  57  0.719  0.279  0.744-   5 1.30  53 1.44  61 1.45
  58  0.286  0.706  0.258-   6 1.30  54 1.45  62 1.45
  59  0.281  0.779  0.756-   7 1.30  55 1.44  63 1.45
  60  0.714  0.206  0.242-   8 1.30  56 1.45  64 1.45
[...]
 422  0.741  0.614  0.509- 198 1.09
 423  0.749  0.908  0.018- 199 1.09
 424  0.259  0.114  0.991- 200 1.09
 425  0.470  0.250  0.739- 209 1.09
 426  0.520  0.747  0.239- 210 1.09
 427  0.530  0.750  0.761- 211 1.09
 428  0.480  0.247  0.261- 212 1.09
 429  0.334  0.193  0.658- 213 1.09
 430  0.653  0.812  0.316- 214 1.09
 431  0.666  0.693  0.842- 215 1.09
 432  0.347  0.312  0.184- 216 1.09
 433  0.256  0.277  0.553- 217 1.09
 434  0.733  0.740  0.427- 218 1.09
 435  0.744  0.777  0.947- 219 1.09
 436  0.267  0.240  0.073- 220 1.09

  LATTYP: Found a simple monoclinic cell.
 ALAT       =    15.4057383227
 B/A-ratio  =     1.0625024363
 C/A-ratio  =     1.2348351052
 COS(beta)  =    -0.2119417549

  Lattice vectors:

 A1 = (  15.4050678300,   0.0000000000,  -0.1437303804)
 A2 = (   0.0000000000,  16.3686345008,   0.0000000000)
 A3 = (  -3.8582570469,   0.0000000000,  18.6281822548)

Analysis of symmetry for initial positions (statically):
 Subroutine PRICEL returns:
 Original cell was already a primitive cell.

 Routine SETGRP: Setting up the symmetry group for a
 simple monoclinic supercell.

 Subroutine GETGRP returns: Found  2 space group operations
 (whereof  1 operations were pure point group operations)
 out of a pool of  4 trial point group operations.

The static configuration has the point symmetry C_1 .
 The point group associated with its full space group is C_2 .

Analysis of symmetry for dynamics (positions and initial velocities):
 Subroutine PRICEL returns:
 Original cell was already a primitive cell.

[...]

The dynamic configuration has the point symmetry C_1 .
 The point group associated with its full space group is C_2 .

Analysis of structural, dynamic, and magnetic symmetry:
 Subroutine PRICEL returns:
 Original cell was already a primitive cell.

 Routine SETGRP: Setting up the symmetry group for a
 simple monoclinic supercell.

 Subroutine GETGRP returns: Found  2 space group operations
 (whereof  1 operations were pure point group operations)
 out of a pool of  4 trial point group operations.

The overall configuration has the point symmetry C_1 .
 The point group associated with its full space group is C_2 .

 Subroutine INISYM returns: Found  2 space group operations
 (whereof  1 operations are pure point group operations),
 and found     1 'primitive' translations

                                     Primitive cell

  volume of cell :    4688.2038

  direct lattice vectors                    reciprocal lattice vectors
    15.405067830  0.000000000 -0.143730380     0.065039388  0.000000000  0.013470916
     0.000000000 16.368634501  0.000000000     0.000000000  0.061092451  0.000000000
    -3.858257047  0.000000000 18.628182255     0.000501828  0.000000000  0.053786041

  length of vectors
    15.405738323 16.368634501 19.023546503     0.066419783  0.061092451  0.053788382

  position of ions in fractional coordinates (direct lattice)
     0.585331531  0.414797677  0.752285673
     0.422139712  0.582408696  0.247537266
     0.414668469  0.914797677  0.747714327
     0.577860288  0.082408696  0.252462734
     0.665518404  0.336734927  0.714359092
     0.336066541  0.646332909  0.288223521
     0.334481596  0.836734957  0.785640908
     0.663933459  0.146332939  0.211776479
     0.682946748  0.492358548  0.793447890
     0.319268747  0.517504506  0.198906207
     0.317053252  0.992358577  0.706552110
     0.680731253  0.017504535  0.301093793
     0.591958242  0.330896028  0.838888771
     0.408192875  0.651351154  0.163207883
     0.408041758  0.830896058  0.661111229
     0.591807125  0.151351184  0.336792117
     0.494707124  0.468178841  0.816485160
     0.503776756  0.521797223  0.200061446
     0.505292846  0.968178871  0.683514840
     0.496223214  0.021797253  0.299938554
     0.469330888  0.357161300  0.683390129
     0.521158181  0.645427160  0.303120468
     0.530669142  0.857161330  0.816609871
     0.478841849  0.145427190  0.196879532
     0.545618001  0.501193342  0.667701530
     0.445344182  0.511728396  0.330961773
     0.454381999  0.001193342  0.832298470
     0.554655818  0.011728396  0.169038227
     0.960549103  0.118637126  0.917661454
     0.060776220  0.886838476  0.084476130
     0.039450897  0.618637126  0.582338546
     0.939223780  0.386838476  0.415523870
     0.847319427  0.011960790  0.867187528
     0.176132999  0.984966409  0.148384145
     0.152680573  0.511960815  0.632812472
     0.823867001  0.484966439  0.351615855
     0.962330814  0.052855315  0.799499734
     0.051528581  0.941997073  0.205096778
     0.037669186  0.552855322  0.700500266
     0.948471419  0.441997073  0.294903222
     0.901523643  0.084697000  0.847882313
     0.115858761  0.912574418  0.158739030
     0.098476357  0.584696970  0.652117687
     0.884141239  0.412574388  0.341260970
     0.838036993  0.152109844  0.811418982
     0.173762419  0.840559340  0.193133312
     0.161963007  0.652109859  0.688581018
     0.826237581  0.340559340  0.306866688
     0.840004639  0.183918771  0.742390089
     0.169471546  0.807010632  0.261005675
     0.159995361  0.683918786  0.757609911
     0.830528454  0.307010632  0.238994325
     0.784744089  0.245751518  0.708198462
     0.221421990  0.742503454  0.294144018
     0.215255911  0.745751503  0.791801538
     0.778578010  0.242503454  0.205855982
     0.719117711  0.279458590  0.744080029
     0.285838840  0.705985255  0.258142907
     0.280882289  0.779458590  0.755919971
     0.714161160  0.205985255  0.241857093
[...]
     0.740549175  0.613997710  0.508533375
     0.748889348  0.908131486  0.018080452
     0.259450810  0.113997680  0.991466625
     0.470295098  0.249530778  0.739378505
     0.520055499  0.746840058  0.238640185
     0.529704902  0.749530793  0.760621495
     0.479944501  0.246840058  0.261359815
     0.334162946  0.192614384  0.658294244
     0.653124160  0.811788984  0.315636595
     0.665837054  0.692614414  0.841705756
     0.346875840  0.311789014  0.184363405
     0.256267725  0.276835876  0.553447711
     0.733359076  0.739663026  0.426718033
     0.743732290  0.776835906  0.946552289
     0.266640939  0.239663056  0.073281967

  ion indices of the primitive-cell ions
   primitive index   ion index
                 1           1
                 2           2
                 3           3
                 4           4
                 5           5
                 6           6
                 7           7
                 8           8
                 9           9
                10          10
                11          11
                12          12
                13          13
                14          14
                15          15
                16          16
                17          17
                18          18
                19          19
                20          20
                21          21
                22          22
                23          23
                24          24
                25          25
                26          26
                27          27
                28          28
                29          29
                30          30
                31          31
                32          32
                33          33
                34          34
                35          35
                36          36
                37          37
                38          38
                39          39
                40          40
                41          41
[...]
   -.283E+03 -.981E+02 0.243E+03   0.271E+03 0.692E+02 -.270E+03   0.121E+02 0.290E+02 0.268E+02
   -.220E+03 -.741E+02 -.260E+03   0.207E+03 0.437E+02 0.281E+03   0.136E+02 0.304E+02 -.218E+02
   0.268E+03 0.961E+02 0.312E+03   -.255E+03 -.659E+02 -.337E+03   -.129E+02 -.302E+02 0.253E+02
   0.220E+03 -.741E+02 0.260E+03   -.207E+03 0.437E+02 -.281E+03   -.136E+02 0.304E+02 0.218E+02
   -.268E+03 0.961E+02 -.312E+03   0.255E+03 -.659E+02 0.337E+03   0.129E+02 -.302E+02 -.253E+02
   -.261E+02 0.132E+03 -.154E+03   0.256E+02 -.120E+03 0.132E+03   0.472E+00 -.119E+02 0.211E+02
   0.292E+02 -.176E+03 0.272E+03   -.310E+02 0.164E+03 -.254E+03   0.185E+01 0.123E+02 -.176E+02
   0.261E+02 0.132E+03 0.154E+03   -.256E+02 -.120E+03 -.132E+03   -.472E+00 -.119E+02 -.211E+02
   -.292E+02 -.176E+03 -.272E+03   0.310E+02 0.164E+03 0.254E+03   -.185E+01 0.123E+02 0.176E+02
   0.895E+02 -.108E+03 -.508E+02   -.689E+02 0.101E+03 0.354E+02   -.206E+02 0.769E+01 0.155E+02
   -.174E+03 0.160E+03 0.914E+02   0.157E+03 -.151E+03 -.799E+02   0.178E+02 -.847E+01 -.115E+02
   -.895E+02 -.108E+03 0.508E+02   0.689E+02 0.101E+03 -.354E+02   0.206E+02 0.769E+01 -.155E+02
   0.174E+03 0.160E+03 -.914E+02   -.157E+03 -.151E+03 0.799E+02   -.178E+02 -.847E+01 0.115E+02
   0.103E+03 0.110E+03 0.742E+02   -.837E+02 -.101E+03 -.578E+02   -.189E+02 -.913E+01 -.164E+02
   -.172E+03 -.167E+03 -.106E+03   0.156E+03 0.158E+03 0.927E+02   0.160E+02 0.928E+01 0.133E+02
   -.103E+03 0.110E+03 -.742E+02   0.837E+02 -.101E+03 0.578E+02   0.189E+02 -.913E+01 0.164E+02
   0.172E+03 -.167E+03 0.106E+03   -.156E+03 0.158E+03 -.927E+02   -.160E+02 0.928E+01 -.133E+02
   0.521E+01 -.122E+03 0.129E+03   -.368E+01 0.108E+03 -.109E+03   -.154E+01 0.144E+02 -.194E+02
   0.251E+02 0.173E+03 -.239E+03   -.272E+02 -.159E+03 0.222E+03   0.209E+01 -.135E+02 0.168E+02
   -.521E+01 -.122E+03 -.129E+03   0.368E+01 0.108E+03 0.109E+03   0.154E+01 0.144E+02 0.194E+02
   -.251E+02 0.173E+03 0.239E+03   0.272E+02 -.159E+03 -.222E+03   -.209E+01 -.135E+02 -.168E+02
   -.922E+02 -.237E+02 -.152E+03   0.918E+02 0.235E+02 0.151E+03   0.350E+00 0.170E+00 0.748E+00
   0.978E+02 0.111E+02 0.163E+03   -.976E+02 -.110E+02 -.162E+03   -.251E+00 -.863E-01 -.796E+00
   0.922E+02 -.237E+02 0.152E+03   -.918E+02 0.235E+02 -.151E+03   -.350E+00 0.170E+00 -.748E+00
   -.978E+02 0.111E+02 -.163E+03   0.976E+02 -.110E+02 0.162E+03   0.251E+00 -.863E-01 0.796E+00
   -.267E+02 0.118E+03 -.717E+02   0.269E+02 -.117E+03 0.714E+02   -.167E+00 -.592E+00 0.270E+00
   0.368E+02 -.114E+03 0.677E+02   -.371E+02 0.114E+03 -.675E+02   0.244E+00 0.600E+00 -.212E+00
   0.267E+02 0.118E+03 0.717E+02   -.269E+02 -.117E+03 -.714E+02   0.167E+00 -.592E+00 -.270E+00
   -.368E+02 -.114E+03 -.677E+02   0.371E+02 0.114E+03 0.675E+02   -.244E+00 0.600E+00 0.212E+00
   -.101E+03 0.750E+02 0.340E+02   0.101E+03 -.747E+02 -.336E+02   0.378E+00 -.303E+00 -.383E+00
   0.116E+03 -.747E+02 -.356E+02   -.115E+03 0.745E+02 0.351E+02   -.417E+00 0.284E+00 0.410E+00
   0.101E+03 0.750E+02 -.340E+02   -.101E+03 -.747E+02 0.336E+02   -.378E+00 -.303E+00 0.383E+00
   -.116E+03 -.747E+02 0.356E+02   0.115E+03 0.745E+02 -.351E+02   0.417E+00 0.284E+00 -.410E+00
   -.735E+02 0.452E+02 -.529E+02   0.737E+02 -.456E+02 0.529E+02   -.182E+00 0.304E+00 0.362E-01
   0.864E+02 -.488E+02 0.576E+02   -.865E+02 0.491E+02 -.576E+02   0.190E+00 -.273E+00 -.218E-01
   0.735E+02 0.452E+02 0.529E+02   -.737E+02 -.456E+02 -.529E+02   0.182E+00 0.304E+00 -.362E-01
   -.864E+02 -.488E+02 -.576E+02   0.865E+02 0.491E+02 0.576E+02   -.190E+00 -.273E+00 0.218E-01
   -.975E+02 0.464E+02 -.425E+02   0.984E+02 -.475E+02 0.431E+02   -.925E+00 0.112E+01 -.552E+00
   0.117E+03 -.512E+02 0.536E+02   -.118E+03 0.524E+02 -.542E+02   0.959E+00 -.115E+01 0.550E+00
   0.975E+02 0.464E+02 0.425E+02   -.984E+02 -.475E+02 -.431E+02   0.925E+00 0.112E+01 0.552E+00
   -.117E+03 -.512E+02 -.536E+02   0.118E+03 0.524E+02 0.542E+02   -.959E+00 -.115E+01 -.550E+00
   -.161E+03 0.749E+02 0.365E+02   0.162E+03 -.751E+02 -.368E+02   -.584E+00 0.221E+00 0.266E+00
   0.183E+03 -.819E+02 -.342E+02   -.183E+03 0.821E+02 0.344E+02   0.582E+00 -.210E+00 -.237E+00
   0.161E+03 0.749E+02 -.365E+02   -.162E+03 -.751E+02 0.368E+02   0.584E+00 0.221E+00 -.266E+00
   -.183E+03 -.819E+02 0.342E+02   0.183E+03 0.821E+02 -.344E+02   -.582E+00 -.210E+00 0.237E+00
   -.131E+03 0.450E+02 0.328E+02   0.131E+03 -.444E+02 -.340E+02   -.371E+00 -.622E+00 0.116E+01
   0.153E+03 -.529E+02 -.323E+02   -.154E+03 0.523E+02 0.335E+02   0.407E+00 0.585E+00 -.118E+01
   0.131E+03 0.450E+02 -.328E+02   -.131E+03 -.444E+02 0.340E+02   0.371E+00 -.622E+00 -.116E+01
   -.153E+03 -.529E+02 0.323E+02   0.154E+03 0.523E+02 -.335E+02   -.407E+00 0.585E+00 0.118E+01
   -.147E+03 0.112E+03 -.291E+02   0.151E+03 -.116E+03 0.308E+02   -.327E+01 0.344E+01 -.171E+01
   0.176E+03 -.129E+03 0.317E+02   -.178E+03 0.132E+03 -.333E+02   0.286E+01 -.340E+01 0.162E+01
   0.147E+03 0.112E+03 0.291E+02   -.151E+03 -.116E+03 -.308E+02   0.327E+01 0.344E+01 0.171E+01
   -.176E+03 -.129E+03 -.317E+02   0.178E+03 0.132E+03 0.333E+02   -.286E+01 -.340E+01 -.162E+01
[...]
   -.739E+02 0.182E+02 -.371E+02   0.780E+02 -.200E+02 0.408E+02   -.408E+01 0.172E+01 -.371E+01
   0.760E+02 -.146E+02 0.390E+02   -.802E+02 0.166E+02 -.425E+02   0.418E+01 -.194E+01 0.351E+01
   0.587E+00 0.550E+02 -.334E+02   0.133E+01 -.580E+02 0.380E+02   -.192E+01 0.305E+01 -.468E+01
   -.709E+01 -.576E+02 0.462E+02   0.526E+01 0.603E+02 -.512E+02   0.183E+01 -.264E+01 0.500E+01
   -.587E+00 0.550E+02 0.334E+02   -.133E+01 -.580E+02 -.380E+02   0.192E+01 0.305E+01 0.468E+01
   0.709E+01 -.576E+02 -.462E+02   -.526E+01 0.603E+02 0.512E+02   -.183E+01 -.264E+01 -.500E+01
   0.295E+02 0.363E+02 0.133E+02   -.319E+02 -.416E+02 -.121E+02   0.236E+01 0.527E+01 -.118E+01
   -.295E+02 -.309E+02 -.558E+01   0.318E+02 0.361E+02 0.393E+01   -.235E+01 -.517E+01 0.165E+01
   -.295E+02 0.363E+02 -.133E+02   0.319E+02 -.416E+02 0.121E+02   -.236E+01 0.527E+01 0.118E+01
   0.295E+02 -.309E+02 0.558E+01   -.318E+02 0.361E+02 -.393E+01   0.235E+01 -.517E+01 -.165E+01
   0.698E+02 0.214E+02 0.454E+02   -.740E+02 -.234E+02 -.489E+02   0.419E+01 0.194E+01 0.351E+01
   -.724E+02 -.193E+02 -.470E+02   0.766E+02 0.216E+02 0.503E+02   -.421E+01 -.229E+01 -.328E+01
   -.698E+02 0.214E+02 -.454E+02   0.740E+02 -.234E+02 0.489E+02   -.419E+01 0.194E+01 -.351E+01
   0.724E+02 -.193E+02 0.470E+02   -.766E+02 0.216E+02 -.503E+02   0.421E+01 -.229E+01 0.328E+01
   0.475E-03 -.362E+01 0.721E-03   0.355E-12 0.125E-11 0.661E-12   -.266E-14 0.362E+01 0.888E-15

 POSITION                                       TOTAL-FORCE (eV/Angst)
      6.11456      6.78967     13.92958         0.000145     -0.000035      0.000409
      5.54803      9.53324      4.55050        -0.000087     -0.000028     -0.000278
      3.50312     14.97399     13.86896        -0.000145     -0.000035     -0.000409
      7.92791      1.34892      4.61987         0.000087     -0.000028      0.000278
      7.49618      5.51189     13.21156         0.000285      0.000014      0.000169
      4.06509     10.57959      5.32078         0.000052      0.000080     -0.000028
      2.12151     13.69621     14.58699        -0.000285      0.000014     -0.000169
      9.41085      2.39527      3.84958        -0.000052      0.000080      0.000028
      7.45952      8.05924     14.68233        -0.000003     -0.000109     -0.000111
      4.15093      8.47084      3.65937        -0.000374     -0.000016     -0.000050
      2.15817     16.24355     13.11621         0.000003     -0.000109      0.000111
      9.32501      0.28653      5.51099         0.000374     -0.000016      0.000050
      5.88251      5.41632     15.54189         0.000324     -0.000059      0.000150
      5.65854     10.66173      2.98160         0.000288     -0.000168      0.000193
      3.73517     13.60063     12.25665        -0.000324     -0.000059     -0.000150
      7.81740      2.47741      6.18876        -0.000288     -0.000168     -0.000193
      4.47079      7.66345     15.13853        -0.000164     -0.000205     -0.000024
      6.98883      8.54111      3.65437         0.000066      0.000036     -0.000031
      5.14689     15.84777     12.66001         0.000164     -0.000205      0.000024
      6.48711      0.35679      5.51599        -0.000066      0.000036      0.000031
      4.59338      5.84624     12.66286        -0.000342      0.000167     -0.000251
      6.85896     10.56476      5.57168         0.000056      0.000018     -0.000278
      5.02430     14.03056     15.13568         0.000342      0.000167      0.000251
      6.61698      2.38044      3.59868        -0.000056      0.000018      0.000278
      5.82912      8.20385     12.35964         0.000301     -0.000380      0.000186
      5.58362      8.37630      6.10121         0.000113     -0.000094      0.000080
      3.78856      0.01953     15.43890        -0.000301     -0.000380     -0.000186
      7.89232      0.19198      3.06915        -0.000113     -0.000094     -0.000080
     11.25675      1.94193     16.95630         0.000313     -0.000368     -0.000164
      0.61033     14.51633      1.56490        -0.000019      0.000332      0.000168
     -1.63907     10.12625     10.84224        -0.000313     -0.000368      0.000164
     12.86561      6.33202      7.60546         0.000019      0.000332     -0.000168
      9.70718      0.19578     16.03234         0.000161     -0.000218      0.000267
      2.14084     16.12256      2.73881        -0.000103     -0.000030      0.000274
     -0.08950      8.38010     11.76620        -0.000161     -0.000218     -0.000267
     11.33510      7.93824      6.43155         0.000103     -0.000030     -0.000274
     11.74010      0.86517     14.75491         0.000262      0.000074      0.000284
      0.00249     15.41921      3.81317         0.000065     -0.000165     -0.000491
     -2.12241      9.04949     13.04363        -0.000262      0.000074     -0.000284
     13.47345      7.23489      5.35719        -0.000065     -0.000165      0.000491
     10.61668      1.38637     15.66493        -0.000135      0.000205     -0.000220
      1.17236     14.93760      2.94037         0.000114     -0.000161      0.000453
     -0.99900      9.57069     12.13361         0.000135      0.000205      0.000220
     12.30358      6.75328      6.22999        -0.000114     -0.000161     -0.000453
      9.77935      2.48983     14.99481        -0.000081      0.000327      0.000052
      1.93166     13.75881      3.57275         0.000276     -0.000125      0.000393
     -0.16167     10.67415     12.80373         0.000081      0.000327     -0.000052
     11.54428      5.57449      5.59761        -0.000276     -0.000125     -0.000393
     10.07600      3.01050     13.70864        -0.000190      0.000003     -0.000404
      1.60369     13.20966      4.83770         0.000117     -0.000245      0.000239
     -0.45831     11.19482     14.08990         0.000190      0.000003      0.000404
     11.87225      5.02534      4.33266        -0.000117     -0.000245     -0.000239
      9.35662      4.02262     13.07966         0.000317      0.000276      0.000086
      2.27614     12.15377      5.44754        -0.000079     -0.000191      0.000275
      0.26106     12.20693     14.71888        -0.000317      0.000276     -0.000086
     11.19980      3.96945      3.72282         0.000079     -0.000191     -0.000275
      8.20721      4.57436     13.75750        -0.000281     -0.000565     -0.000004
      3.40739     11.55601      4.76765        -0.000186      0.000160     -0.000039
      1.41048     12.75867     14.04104         0.000281     -0.000565      0.000004
     10.06855      3.37170      4.40271         0.000186      0.000160      0.000039
[...]
      9.44616     10.05030      9.36661        -0.000094     -0.000140      0.000361
     11.46693     14.86487      0.22917        -0.000608      0.000323     -0.000212
      0.17152      1.86599     18.43193         0.000094     -0.000140     -0.000361
      4.39222      4.08448     13.70568         0.000213     -0.000214      0.000111
      7.09076     12.22475      4.37069        -0.000060     -0.000108      0.000036
      5.22547     12.26880     14.09286        -0.000213     -0.000214     -0.000111
      6.38518      4.04043      4.79968         0.000060     -0.000108     -0.000036
      2.60793      3.15283     12.21480         0.000324      0.000222     -0.000062
      8.84361     13.28788      5.78586        -0.000254     -0.000348      0.000136
      7.00975     11.33715     15.58375        -0.000324      0.000222      0.000062
      4.63232      5.10356      3.38450         0.000254     -0.000348     -0.000136
      1.81248      4.53143     10.27289         0.000065     -0.000082     -0.000013
      9.65106     12.10727      7.84358         0.000131     -0.000123     -0.000113
      7.80520     12.71574     17.52565        -0.000065     -0.000082      0.000013
      3.82488      3.92296      1.32679        -0.000131     -0.000123      0.000113
    total drift:                                0.000475     -0.000385      0.000721

  FREE ENERGIE OF THE ION-ELECTRON SYSTEM (eV)
  free  energy   TOTEN  =     -2749.39624754 eV

  energy  without entropy=    -2749.39624754  energy(sigma->0) =    -2749.39624754

 reached required accuracy - stopping structural energy minimisation

 total charge

[...]

 magnetization (x)

# of ion       s       p       d       tot
    1        0.011   0.012   3.558   3.581
    2        0.000   0.000   0.000   0.000
    3        0.011   0.012   3.558   3.581
    4        0.000   0.000   0.000   0.000
    5        0.008   0.066   0.000   0.073
    6        0.000  -0.000   0.000  -0.000
    7        0.008   0.066   0.000   0.073
    8        0.000  -0.000   0.000  -0.000
    9        0.008   0.070   0.000   0.078
   10       -0.000   0.000   0.000   0.000
   11        0.008   0.070   0.000   0.078
   12       -0.000   0.000   0.000   0.000
   13        0.008   0.024   0.000   0.032
   14        0.000   0.000   0.000   0.000
   15        0.008   0.024   0.000   0.032
   16        0.000   0.000   0.000   0.000
   17        0.009   0.028   0.000   0.037
   18       -0.000  -0.000   0.000  -0.000
   19        0.009   0.028   0.000   0.037
   20       -0.000  -0.000   0.000  -0.000
   21        0.009   0.028   0.000   0.037
   22        0.000   0.000   0.000   0.000
   23        0.009   0.028   0.000   0.037
   24        0.000   0.000   0.000   0.000
   25        0.009   0.024   0.000   0.032
   26       -0.000  -0.000   0.000  -0.000
   27        0.009   0.024   0.000   0.032
   28       -0.000  -0.000   0.000  -0.000
   29        0.000   0.000   0.000   0.000
   30        0.000   0.000   0.000   0.000
   31        0.000   0.000   0.000   0.000
   32        0.000   0.000   0.000   0.000
   33        0.000   0.000   0.000   0.000
   34        0.000   0.000   0.000   0.000
   35        0.000   0.000   0.000   0.000
   36        0.000   0.000   0.000   0.000
   37       -0.000  -0.000   0.000  -0.000
   38        0.000   0.000   0.000   0.000
   39       -0.000  -0.000   0.000  -0.000
   40        0.000   0.000   0.000   0.000
   41       -0.000  -0.000   0.000  -0.000
   42        0.000   0.000   0.000   0.000
   43       -0.000  -0.000   0.000  -0.000
   44        0.000   0.000   0.000   0.000
   45        0.000   0.005   0.000   0.005
   46        0.000  -0.000   0.000  -0.000
   47        0.000   0.005   0.000   0.005
   48        0.000  -0.000   0.000  -0.000
   49       -0.000  -0.007   0.000  -0.007
   50       -0.000  -0.000   0.000  -0.000
   51       -0.000  -0.007   0.000  -0.007
   52       -0.000  -0.000   0.000  -0.000
   53        0.001   0.008   0.000   0.009
   54        0.000   0.000   0.000   0.000
   55        0.001   0.008   0.000   0.009
   56        0.000   0.000   0.000   0.000
   57        0.000  -0.007   0.000  -0.006
   58       -0.000  -0.000   0.000  -0.000
   59        0.000  -0.007   0.000  -0.006
   60       -0.000  -0.000   0.000  -0.000
[...]
  422        0.000  -0.000   0.000   0.000
  423        0.000   0.000   0.000   0.000
  424        0.000  -0.000   0.000   0.000
  425        0.001  -0.000   0.000   0.001
  426        0.000  -0.000   0.000   0.000
  427        0.001  -0.000   0.000   0.001
  428        0.000  -0.000   0.000   0.000
  429        0.000   0.000   0.000   0.000
  430       -0.000   0.000   0.000  -0.000
  431        0.000   0.000   0.000   0.000
  432       -0.000   0.000   0.000  -0.000
  433        0.000  -0.000   0.000   0.000
  434        0.000  -0.000   0.000   0.000
  435        0.000  -0.000   0.000   0.000
  436        0.000  -0.000   0.000   0.000
tot          0.152   0.380   7.117   7.649