 vasp.6.3.0 20Jan22 (build Month Day Year Time) complex

 POSCAR: TransitionMetal
  positions in direct lattice
  velocities in cartesian coordinates
 exchange correlation table for  LEXCH =        8
   RHO(1)=    0.500       N(1)  =     2000
   RHO(2)=  100.500       N(2)  =     4000

 ion  position               nearest neighbor table
   1  0.576  0.420  0.751-  25 1.93  13 1.93  21 1.95  17 1.96   9 1.96   5 1.97
   2  0.424  0.580  0.249-  26 1.93  14 1.93  22 1.95  18 1.96  10 1.96   6 1.97
   3  0.424  0.920  0.749-  27 1.93  15 1.93  23 1.95  19 1.96  11 1.96   7 1.97
   4  0.576  0.080  0.251-  28 1.93  16 1.93  24 1.95  20 1.96  12 1.96   8 1.97
   5  0.664  0.358  0.709-  57 1.30   1 1.97
   6  0.336  0.642  0.291-  58 1.30   2 1.97
   7  0.336  0.858  0.791-  59 1.30   3 1.97
   8  0.664  0.142  0.209-  60 1.30   4 1.97
   9  0.679  0.486  0.799- 145 1.30   1 1.96
  10  0.321  0.514  0.201- 146 1.30   2 1.96
  11  0.321  0.986  0.701- 147 1.30   3 1.96
  12  0.679  0.014  0.299- 148 1.30   4 1.96
  13  0.593  0.351  0.834-  85 1.32  89 1.41   1 1.93
  14  0.407  0.649  0.166-  86 1.32  90 1.41   2 1.93
  15  0.407  0.851  0.666-  87 1.32  91 1.41   3 1.93
  16  0.593  0.149  0.334-  88 1.32  92 1.41   4 1.93
  17  0.494  0.479  0.799- 113 1.33 109 1.38   1 1.96
  18  0.506  0.521  0.201- 114 1.33 110 1.38   2 1.96
  19  0.506  0.979  0.701- 115 1.33 111 1.38   3 1.96
  20  0.494  0.021  0.299- 116 1.33 112 1.38   4 1.96
  21  0.479  0.355  0.695- 209 1.33 205 1.38   1 1.95
  22  0.521  0.645  0.305- 210 1.33 206 1.38   2 1.95
  23  0.521  0.855  0.805- 211 1.33 207 1.38   3 1.95
  24  0.479  0.145  0.195- 212 1.33 208 1.38   4 1.95
  25  0.551  0.491  0.668- 181 1.32 185 1.41   1 1.93
  26  0.449  0.509  0.332- 182 1.32 186 1.41   2 1.93
  27  0.449  0.991  0.832- 183 1.32 187 1.41   3 1.93
  28  0.551  0.009  0.168- 184 1.32 188 1.41   4 1.93
  29  0.955  0.123  0.904- 221 1.10 229 1.10 225 1.10  41 1.54
  30  0.045  0.877  0.096- 222 1.10 230 1.10 226 1.10  42 1.54
  31  0.045  0.623  0.596- 223 1.10 231 1.10 227 1.10  43 1.54
  32  0.955  0.377  0.404- 224 1.10 232 1.10 228 1.10  44 1.54
  33  0.832  0.023  0.854- 241 1.10 233 1.10 237 1.10  41 1.54
  34  0.168  0.977  0.146- 242 1.10 234 1.10 238 1.10  42 1.54
  35  0.168  0.523  0.646- 243 1.10 235 1.10 239 1.10  43 1.54
  36  0.832  0.477  0.354- 244 1.10 236 1.10 240 1.10  44 1.54
  37  0.947  0.058  0.784- 253 1.10 249 1.10 245 1.10  41 1.54
  38  0.053  0.942  0.216- 254 1.10 250 1.10 246 1.10  42 1.54
  39  0.053  0.558  0.716- 255 1.10 251 1.10 247 1.10  43 1.54
  40  0.947  0.442  0.284- 256 1.10 252 1.10 248 1.10  44 1.54
  41  0.890  0.093  0.835-  37 1.54  45 1.54  33 1.54  29 1.54
  42  0.110  0.907  0.165-  38 1.54  46 1.54  34 1.54  30 1.54
  43  0.110  0.593  0.665-  39 1.54  47 1.54  35 1.54  31 1.54
  44  0.890  0.407  0.335-  40 1.54  48 1.54  36 1.54  32 1.54
  45  0.830  0.164  0.801-  65 1.38  49 1.42  41 1.54
  46  0.170  0.836  0.199-  66 1.38  50 1.42  42 1.54
  47  0.170  0.664  0.699-  67 1.38  51 1.42  43 1.54
  48  0.830  0.336  0.301-  68 1.38  52 1.42  44 1.54
  49  0.832  0.198  0.733- 257 1.09  53 1.39  45 1.42
  50  0.168  0.802  0.267- 258 1.09  54 1.39  46 1.42
  51  0.168  0.698  0.767- 259 1.09  55 1.39  47 1.42
  52  0.832  0.302  0.233- 260 1.09  56 1.39  48 1.42
  53  0.779  0.263  0.701-  49 1.39  57 1.45  73 1.54
  54  0.221  0.737  0.299-  50 1.39  58 1.45  74 1.54
  55  0.221  0.763  0.799-  51 1.39  59 1.45  75 1.54
  56  0.779  0.237  0.201-  52 1.39  60 1.45  76 1.54
  57  0.715  0.298  0.738-   5 1.30  53 1.45  61 1.45
  58  0.285  0.702  0.262-   6 1.30  54 1.45  62 1.45
  59  0.285  0.798  0.762-   7 1.30  55 1.45  63 1.45
  60  0.715  0.202  0.238-   8 1.30  56 1.45  64 1.45
[...]
 422  0.743  0.618  0.511- 198 1.09
 423  0.743  0.882  0.011- 199 1.09
 424  0.257  0.118  0.989- 200 1.09
 425  0.484  0.252  0.758- 209 1.09
 426  0.516  0.748  0.242- 210 1.09
 427  0.516  0.752  0.742- 211 1.09
 428  0.484  0.248  0.258- 212 1.09
 429  0.354  0.183  0.679- 213 1.09
 430  0.646  0.817  0.321- 214 1.09
 431  0.646  0.683  0.821- 215 1.09
 432  0.354  0.317  0.179- 216 1.09
 433  0.270  0.254  0.569- 217 1.09
 434  0.730  0.746  0.431- 218 1.09
 435  0.730  0.754  0.931- 219 1.09
 436  0.270  0.246  0.069- 220 1.09

  LATTYP: Found a simple monoclinic cell.
 ALAT       =    15.2747134221
 B/A-ratio  =     1.0705971185
 C/A-ratio  =     1.2489354464
 COS(beta)  =    -0.2157299280

  Lattice vectors:

 A1 = (  15.2736730083,   0.0000000000,  -0.1782777606)
 A2 = (   0.0000000000,  16.3530641762,   0.0000000000)
 A3 = (  -3.8978132661,   0.0000000000,  18.6746882148)

Analysis of symmetry for initial positions (statically):
 Subroutine PRICEL returns:
 Original cell was already a primitive cell.

 Routine SETGRP: Setting up the symmetry group for a
 simple monoclinic supercell.

 Subroutine GETGRP returns: Found  4 space group operations
 (whereof  2 operations were pure point group operations)
 out of a pool of  4 trial point group operations.

The static configuration has the point symmetry S_2 .
 The point group associated with its full space group is C_2h.

Analysis of symmetry for dynamics (positions and initial velocities):
 Subroutine PRICEL returns:
 Original cell was already a primitive cell.

[...]

The dynamic configuration has the point symmetry S_2 .
 The point group associated with its full space group is C_2h.

Analysis of structural, dynamic, and magnetic symmetry:
 Subroutine PRICEL returns:
 Original cell was already a primitive cell.

 Routine SETGRP: Setting up the symmetry group for a
 simple monoclinic supercell.

 Subroutine GETGRP returns: Found  4 space group operations
 (whereof  2 operations were pure point group operations)
 out of a pool of  4 trial point group operations.

The overall configuration has the point symmetry S_2 .
 The point group associated with its full space group is C_2h.

 Subroutine INISYM returns: Found  4 space group operations
 (whereof  2 operations are pure point group operations),
 and found     1 'primitive' translations

                                     Primitive cell

  volume of cell :    4653.0385

  direct lattice vectors                    reciprocal lattice vectors
    15.273673008  0.000000000 -0.178277761     0.065632032  0.000000000  0.013698831
     0.000000000 16.353064176  0.000000000     0.000000000  0.061150619  0.000000000
    -3.897813266  0.000000000 18.674688215     0.000626556  0.000000000  0.053679193

  length of vectors
    15.274713422 16.353064176 19.077131026     0.067046414  0.061150619  0.053682850

  position of ions in fractional coordinates (direct lattice)
     0.576486600  0.420021336  0.750521570
     0.423513400  0.579978664  0.249478430
     0.423513400  0.920021336  0.749478430
     0.576486600  0.079978664  0.250521570
     0.663512081  0.358223879  0.708830972
     0.336487919  0.641776091  0.291169028
     0.336487919  0.858223909  0.791169028
     0.663512081  0.141776121  0.208830972
     0.679324314  0.485957501  0.799113039
     0.320675686  0.514042470  0.200886961
     0.320675686  0.985957530  0.700886961
     0.679324314  0.014042499  0.299113039
     0.593049336  0.350575513  0.834419841
     0.406950664  0.649424457  0.165580159
     0.406950664  0.850575543  0.665580159
     0.593049336  0.149424487  0.334419841
     0.493857907  0.478883577  0.798590593
     0.506142063  0.521116393  0.201409407
     0.506142063  0.978883607  0.701409407
     0.493857907  0.021116423  0.298590593
     0.478568821  0.354927173  0.694710595
     0.521431209  0.645072797  0.305289405
     0.521431209  0.854927203  0.805289405
     0.478568821  0.145072827  0.194710595
     0.550605404  0.491370037  0.667825161
     0.449394596  0.508629963  0.332174839
     0.449394596  0.991370037  0.832174839
     0.550605404  0.008629963  0.167825161
     0.954506297  0.122986151  0.903815261
     0.045493703  0.877013849  0.096184739
     0.045493703  0.622986151  0.596184739
     0.954506297  0.377013849  0.403815261
     0.832300943  0.022885718  0.854248898
     0.167699057  0.977114257  0.145751102
     0.167699057  0.522885743  0.645751102
     0.832300943  0.477114287  0.354248898
     0.946955843  0.058341960  0.783925119
     0.053044157  0.941658033  0.216074881
     0.053044157  0.558341967  0.716074881
     0.946955843  0.441658033  0.283925119
     0.890393063  0.092912680  0.834630343
     0.109606937  0.907087350  0.165369657
     0.109606937  0.592912650  0.665369657
     0.890393063  0.407087320  0.334630343
     0.829945930  0.164032893  0.800718437
     0.170054070  0.835967092  0.199281563
     0.170054070  0.664032908  0.699281563
     0.829945930  0.335967092  0.300718437
     0.832057652  0.197970425  0.732699336
     0.167942348  0.802029560  0.267300664
     0.167942348  0.697970440  0.767300664
     0.832057652  0.302029560  0.232699336
     0.778706967  0.262591873  0.700638508
     0.221293033  0.737408142  0.299361492
     0.221293033  0.762591858  0.799361492
     0.778706967  0.237408142  0.200638508
     0.714899265  0.298464004  0.737902462
     0.285100735  0.701535996  0.262097538
     0.285100735  0.798464004  0.762097538
     0.714899265  0.201535996  0.237902462
[...]
     0.742680360  0.618421719  0.511469757
     0.742680360  0.881578281  0.011469727
     0.257319625  0.118421689  0.988530243
     0.483871742  0.252260903  0.758229457
     0.516128258  0.747739082  0.241770543
     0.516128258  0.752260918  0.741770543
     0.483871742  0.247739082  0.258229457
     0.353762755  0.182909663  0.679451566
     0.646237245  0.817090307  0.320548434
     0.646237245  0.682909693  0.820548434
     0.353762755  0.317090337  0.179451566
     0.270416009  0.253919647  0.568609083
     0.729584006  0.746080323  0.431390917
     0.729584006  0.753919677  0.931390917
     0.270416009  0.246080353  0.068609083

  ion indices of the primitive-cell ions
   primitive index   ion index
                 1           1
                 2           2
                 3           3
                 4           4
                 5           5
                 6           6
                 7           7
                 8           8
                 9           9
                10          10
                11          11
                12          12
                13          13
                14          14
                15          15
                16          16
                17          17
                18          18
                19          19
                20          20
                21          21
                22          22
                23          23
                24          24
                25          25
                26          26
                27          27
                28          28
                29          29
                30          30
                31          31
                32          32
                33          33
                34          34
                35          35
                36          36
                37          37
                38          38
                39          39
[...]
   -.286E+03 -.910E+02 0.252E+03   0.274E+03 0.618E+02 -.278E+03   0.126E+02 0.292E+02 0.263E+02
   -.269E+03 -.972E+02 -.311E+03   0.257E+03 0.666E+02 0.336E+03   0.121E+02 0.306E+02 -.253E+02
   0.269E+03 0.972E+02 0.311E+03   -.257E+03 -.666E+02 -.336E+03   -.121E+02 -.306E+02 0.253E+02
   0.269E+03 -.972E+02 0.311E+03   -.257E+03 0.666E+02 -.336E+03   -.121E+02 0.306E+02 0.253E+02
   -.269E+03 0.972E+02 -.311E+03   0.257E+03 -.666E+02 0.336E+03   0.121E+02 -.306E+02 -.253E+02
   -.377E+02 0.176E+03 -.268E+03   0.390E+02 -.164E+03 0.250E+03   -.130E+01 -.123E+02 0.177E+02
   0.377E+02 -.176E+03 0.268E+03   -.390E+02 0.164E+03 -.250E+03   0.130E+01 0.123E+02 -.177E+02
   0.377E+02 0.176E+03 0.268E+03   -.390E+02 -.164E+03 -.250E+03   0.130E+01 -.123E+02 -.177E+02
   -.377E+02 -.176E+03 -.268E+03   0.390E+02 0.164E+03 0.250E+03   -.130E+01 0.123E+02 0.177E+02
   0.177E+03 -.157E+03 -.891E+02   -.159E+03 0.149E+03 0.772E+02   -.176E+02 0.824E+01 0.119E+02
   -.177E+03 0.157E+03 0.891E+02   0.159E+03 -.149E+03 -.772E+02   0.176E+02 -.824E+01 -.119E+02
   -.177E+03 -.157E+03 0.891E+02   0.159E+03 0.149E+03 -.772E+02   0.176E+02 0.824E+01 -.119E+02
   0.177E+03 0.157E+03 -.891E+02   -.159E+03 -.149E+03 0.772E+02   -.176E+02 -.824E+01 0.119E+02
   0.169E+03 0.170E+03 0.112E+03   -.154E+03 -.160E+03 -.983E+02   -.153E+02 -.991E+01 -.136E+02
   -.169E+03 -.170E+03 -.112E+03   0.154E+03 0.160E+03 0.983E+02   0.153E+02 0.991E+01 0.136E+02
   -.169E+03 0.170E+03 -.112E+03   0.154E+03 -.160E+03 0.983E+02   0.153E+02 -.991E+01 0.136E+02
   0.169E+03 -.170E+03 0.112E+03   -.154E+03 0.160E+03 -.983E+02   -.153E+02 0.991E+01 -.136E+02
   -.176E+02 -.170E+03 0.237E+03   0.201E+02 0.157E+03 -.220E+03   -.253E+01 0.136E+02 -.167E+02
   0.176E+02 0.170E+03 -.237E+03   -.201E+02 -.157E+03 0.220E+03   0.253E+01 -.136E+02 0.167E+02
   0.176E+02 -.170E+03 -.237E+03   -.201E+02 0.157E+03 0.220E+03   0.253E+01 0.136E+02 0.167E+02
   -.176E+02 0.170E+03 0.237E+03   0.201E+02 -.157E+03 -.220E+03   -.253E+01 -.136E+02 -.167E+02
   -.100E+03 -.123E+02 -.162E+03   0.100E+03 0.122E+02 0.161E+03   0.350E+00 0.131E+00 0.725E+00
   0.100E+03 0.123E+02 0.162E+03   -.100E+03 -.122E+02 -.161E+03   -.350E+00 -.131E+00 -.725E+00
   0.100E+03 -.123E+02 0.162E+03   -.100E+03 0.122E+02 -.161E+03   -.350E+00 0.131E+00 -.725E+00
   -.100E+03 0.123E+02 -.162E+03   0.100E+03 -.122E+02 0.161E+03   0.350E+00 -.131E+00 0.725E+00
   -.344E+02 0.114E+03 -.875E+02   0.347E+02 -.114E+03 0.871E+02   -.268E+00 -.542E+00 0.338E+00
   0.344E+02 -.114E+03 0.875E+02   -.347E+02 0.114E+03 -.871E+02   0.268E+00 0.542E+00 -.338E+00
   0.344E+02 0.114E+03 0.875E+02   -.347E+02 -.114E+03 -.871E+02   0.268E+00 -.542E+00 -.338E+00
   -.344E+02 -.114E+03 -.875E+02   0.347E+02 0.114E+03 0.871E+02   -.268E+00 0.542E+00 0.338E+00
   -.106E+03 0.800E+02 0.402E+02   0.106E+03 -.797E+02 -.397E+02   0.355E+00 -.308E+00 -.429E+00
   0.106E+03 -.800E+02 -.402E+02   -.106E+03 0.797E+02 0.397E+02   -.355E+00 0.308E+00 0.429E+00
   0.106E+03 0.800E+02 -.402E+02   -.106E+03 -.797E+02 0.397E+02   -.355E+00 -.308E+00 0.429E+00
   -.106E+03 -.800E+02 0.402E+02   0.106E+03 0.797E+02 -.397E+02   0.355E+00 0.308E+00 -.429E+00
   -.834E+02 0.501E+02 -.603E+02   0.835E+02 -.504E+02 0.602E+02   -.170E+00 0.305E+00 0.212E-01
   0.834E+02 -.501E+02 0.603E+02   -.835E+02 0.504E+02 -.602E+02   0.170E+00 -.305E+00 -.212E-01
   0.834E+02 0.501E+02 0.603E+02   -.835E+02 -.504E+02 -.602E+02   0.170E+00 0.305E+00 -.212E-01
   -.834E+02 -.501E+02 -.603E+02   0.835E+02 0.504E+02 0.602E+02   -.170E+00 -.305E+00 0.212E-01
   -.114E+03 0.518E+02 -.509E+02   0.115E+03 -.530E+02 0.514E+02   -.928E+00 0.122E+01 -.491E+00
   0.114E+03 -.518E+02 0.509E+02   -.115E+03 0.530E+02 -.514E+02   0.928E+00 -.122E+01 0.491E+00
   0.114E+03 0.518E+02 0.509E+02   -.115E+03 -.530E+02 -.514E+02   0.928E+00 0.122E+01 0.491E+00
   -.114E+03 -.518E+02 -.509E+02   0.115E+03 0.530E+02 0.514E+02   -.928E+00 -.122E+01 -.491E+00
   -.179E+03 0.779E+02 0.397E+02   0.179E+03 -.781E+02 -.399E+02   -.592E+00 0.209E+00 0.252E+00
   0.179E+03 -.779E+02 -.397E+02   -.179E+03 0.781E+02 0.399E+02   0.592E+00 -.209E+00 -.252E+00
   0.179E+03 0.779E+02 -.397E+02   -.179E+03 -.781E+02 0.399E+02   0.592E+00 0.209E+00 -.252E+00
   -.179E+03 -.779E+02 0.397E+02   0.179E+03 0.781E+02 -.399E+02   -.592E+00 -.209E+00 0.252E+00
   -.150E+03 0.494E+02 0.384E+02   0.151E+03 -.488E+02 -.396E+02   -.380E+00 -.590E+00 0.117E+01
   0.150E+03 -.494E+02 -.384E+02   -.151E+03 0.488E+02 0.396E+02   0.380E+00 0.590E+00 -.117E+01
   0.150E+03 0.494E+02 -.384E+02   -.151E+03 -.488E+02 0.396E+02   0.380E+00 -.590E+00 -.117E+01
   -.150E+03 -.494E+02 0.384E+02   0.151E+03 0.488E+02 -.396E+02   -.380E+00 0.590E+00 0.117E+01
   -.177E+03 0.127E+03 -.254E+02   0.180E+03 -.130E+03 0.269E+02   -.291E+01 0.340E+01 -.155E+01
   0.177E+03 -.127E+03 0.254E+02   -.180E+03 0.130E+03 -.269E+02   0.291E+01 -.340E+01 0.155E+01
   0.177E+03 0.127E+03 0.254E+02   -.180E+03 -.130E+03 -.269E+02   0.291E+01 0.340E+01 0.155E+01
   -.177E+03 -.127E+03 -.254E+02   0.180E+03 0.130E+03 0.269E+02   -.291E+01 -.340E+01 -.155E+01
[...]
   -.754E+02 0.190E+02 -.373E+02   0.795E+02 -.211E+02 0.408E+02   -.407E+01 0.208E+01 -.355E+01
   0.754E+02 -.190E+02 0.373E+02   -.795E+02 0.211E+02 -.408E+02   0.407E+01 -.208E+01 0.355E+01
   0.408E+01 0.572E+02 -.443E+02   -.219E+01 -.597E+02 0.493E+02   -.189E+01 0.259E+01 -.501E+01
   -.408E+01 -.572E+02 0.443E+02   0.219E+01 0.597E+02 -.493E+02   0.189E+01 -.259E+01 0.501E+01
   -.408E+01 0.572E+02 0.443E+02   0.219E+01 -.597E+02 -.493E+02   0.189E+01 0.259E+01 0.501E+01
   0.408E+01 -.572E+02 -.443E+02   -.219E+01 0.597E+02 0.493E+02   -.189E+01 -.259E+01 -.501E+01
   0.257E+02 0.318E+02 0.913E+01   -.278E+02 -.371E+02 -.755E+01   0.212E+01 0.529E+01 -.158E+01
   -.257E+02 -.318E+02 -.913E+01   0.278E+02 0.371E+02 0.755E+01   -.212E+01 -.529E+01 0.158E+01
   -.257E+02 0.318E+02 -.913E+01   0.278E+02 -.371E+02 0.755E+01   -.212E+01 0.529E+01 0.158E+01
   0.257E+02 -.318E+02 0.913E+01   -.278E+02 0.371E+02 -.755E+01   0.212E+01 -.529E+01 -.158E+01
   0.688E+02 0.212E+02 0.496E+02   -.728E+02 -.237E+02 -.529E+02   0.406E+01 0.245E+01 0.334E+01
   -.688E+02 -.212E+02 -.496E+02   0.728E+02 0.237E+02 0.529E+02   -.406E+01 -.245E+01 -.334E+01
   -.688E+02 0.212E+02 -.496E+02   0.728E+02 -.237E+02 0.529E+02   -.406E+01 0.245E+01 -.334E+01
   0.688E+02 -.212E+02 0.496E+02   -.728E+02 0.237E+02 -.529E+02   0.406E+01 -.245E+01 0.334E+01
   0.474E-03 0.214E-03 0.685E-03   -.114E-12 -.179E-11 -.153E-11   0.977E-14 0.400E-14 -.355E-14

 POSITION                                       TOTAL-FORCE (eV/Angst)
      5.87967      6.86864     13.91298        -0.000926      0.000054      0.000163
      5.49618      9.48443      4.58343         0.000926     -0.000054     -0.000163
      3.54728     15.04517     13.92077         0.000926      0.000054     -0.000163
      7.82858      1.30790      4.57564        -0.000926     -0.000054      0.000163
      7.37138      5.85806     13.11891         0.000209     -0.000100     -0.000351
      4.00448     10.49501      5.37750        -0.000209      0.000100      0.000351
      2.05558     14.03459     14.71485        -0.000209     -0.000100      0.000351
      9.32028      2.31847      3.78156         0.000209      0.000100     -0.000351
      7.26098      7.94689     14.80208         0.000313      0.000078      0.000259
      4.11488      8.40617      3.69433        -0.000313     -0.000078     -0.000259
      2.16597     16.12343     13.03168        -0.000313      0.000078     -0.000259
      9.20989      0.22964      5.46473         0.000313     -0.000078      0.000259
      5.80563      5.73298     15.47680        -0.000339      0.000371     -0.000017
      5.57023     10.62008      3.01961         0.000339     -0.000371      0.000017
      3.62132     13.90952     12.35695         0.000339      0.000371      0.000017
      7.75454      2.44355      6.13946        -0.000339     -0.000371     -0.000017
      4.43027      7.83121     14.82539        -0.000055      0.000605     -0.000208
      6.94559      8.52185      3.67102         0.000055     -0.000605      0.000208
      4.99669     16.00775     13.00837         0.000055      0.000605      0.000208
      6.37917      0.34532      5.48804        -0.000055     -0.000605     -0.000208
      4.60165      5.80415     12.88819        -0.000126     -0.000781      0.000413
      6.77421     10.54892      5.60822         0.000126      0.000781     -0.000413
      4.82530     13.98068     14.94557         0.000126     -0.000781     -0.000413
      6.55056      2.37239      3.55084        -0.000126      0.000781      0.000413
      5.80671      8.03541     12.37327         0.000078     -0.000094     -0.000114
      5.56915      8.31766      6.12314        -0.000078      0.000094      0.000114
      3.62024     16.21194     15.46049        -0.000078     -0.000094      0.000114
      7.75562      0.14113      3.03592         0.000078      0.000094     -0.000114
     11.05591      2.01120     16.70830        -0.000278     -0.000169      0.000005
      0.31995     14.34186      1.78811         0.000278      0.000169     -0.000005
     -1.62896     10.18773     11.12545         0.000278     -0.000169     -0.000005
     13.00482      6.16533      7.37096        -0.000278      0.000169      0.000005
      9.38259      0.37425     15.80445        -0.000101     -0.000205     -0.000306
      1.99327     15.97881      2.69196         0.000101      0.000205      0.000306
      0.04436      8.55078     12.02930         0.000101     -0.000205      0.000306
     11.33150      7.80228      6.46711        -0.000101      0.000205     -0.000306
     11.40790      0.95407     14.47074        -0.000162      0.000063      0.000018
     -0.03204     15.39899      4.02567         0.000162     -0.000063     -0.000018
     -1.98095      9.13060     13.36302         0.000162      0.000063     -0.000018
     13.35681      7.22246      5.13339        -0.000162     -0.000063      0.000018
     10.34634      1.51941     15.42772        -0.000200     -0.000082     -0.000100
      1.02952     14.83366      3.06869         0.000200      0.000082      0.000100
     -0.91939      9.69594     12.40603         0.000200     -0.000082      0.000100
     12.29525      6.65713      6.09038        -0.000200      0.000082     -0.000100
      9.55527      2.68244     14.80521        -0.000201     -0.000003     -0.000165
      1.82059     13.67062      3.69120         0.000201      0.000003      0.000165
     -0.12832     10.85897     13.02855         0.000201     -0.000003      0.000165
     11.50418      5.49409      5.46786        -0.000201      0.000003     -0.000165
      9.85265      3.23742     13.53459        -0.000123      0.000015     -0.000142
      1.52321     13.11564      4.96182         0.000123     -0.000015      0.000142
     -0.42570     11.41396     14.29916         0.000123      0.000015      0.000142
     11.80156      4.93911      4.19725        -0.000123     -0.000015     -0.000142
      9.16276      4.29418     12.94538        -0.000198      0.000047     -0.000083
      2.21310     12.05888      5.55103         0.000198     -0.000047      0.000083
      0.26420     12.47071     14.88838         0.000198      0.000047      0.000083
     11.11166      3.88235      3.60804        -0.000198     -0.000047     -0.000083
      8.04293      4.88080     13.65265        -0.000166      0.000059     -0.000091
      3.33293     11.47226      4.84376         0.000166     -0.000059      0.000091
      1.38402     13.05733     14.18111         0.000166      0.000059      0.000091
      9.99184      3.29573      4.31530        -0.000166     -0.000059     -0.000091
[...]
      9.34984     10.11309      9.41913         0.000147     -0.000240     -0.000083
     11.29875     14.41651      0.08179         0.000147      0.000240     -0.000083
      0.07711      1.93656     18.41462        -0.000147     -0.000240      0.000083
      4.43506      4.12524     14.07344        -0.000186     -0.000059      0.000240
      6.94080     12.22783      4.42298         0.000186      0.000059     -0.000240
      4.99189     12.30177     13.76032         0.000186     -0.000059     -0.000240
      6.38397      4.05129      4.73609        -0.000186      0.000059      0.000240
      2.75488      2.99113     12.62548        -0.000094      0.000367     -0.000241
      8.62098     13.36193      5.87093         0.000094     -0.000367      0.000241
      6.67207     11.16767     15.20828         0.000094      0.000367      0.000241
      4.70379      5.18540      3.28813        -0.000094     -0.000367     -0.000241
      1.91391      4.15236     10.57039         0.000013      0.000319     -0.000041
      9.46195     12.20070      7.92602        -0.000013     -0.000319      0.000041
      7.51304     12.32890     17.26337        -0.000013      0.000319      0.000041
      3.86282      4.02417      1.23304         0.000013     -0.000319     -0.000041
    total drift:                                0.000474      0.000214      0.000685

  FREE ENERGIE OF THE ION-ELECTRON SYSTEM (eV)
  free  energy   TOTEN  =     -2749.62270934 eV

  energy  without entropy=    -2749.62270934  energy(sigma->0) =    -2749.62270934

 reached required accuracy - stopping structural energy minimisation

 total charge

[...]

 magnetization (x)

# of ion       s       p       d       tot
    1        0.000   0.000   0.000   0.000
    2        0.000   0.000   0.000   0.000
    3        0.000   0.000   0.000   0.000
    4        0.000   0.000   0.000   0.000
    5        0.000   0.000   0.000   0.000
    6        0.000   0.000   0.000   0.000
    7        0.000   0.000   0.000   0.000
    8        0.000   0.000   0.000   0.000
    9        0.000  -0.000   0.000  -0.000
   10        0.000  -0.000   0.000  -0.000
   11        0.000  -0.000   0.000  -0.000
   12        0.000  -0.000   0.000  -0.000
   13        0.000  -0.000   0.000  -0.000
   14        0.000  -0.000   0.000  -0.000
   15        0.000  -0.000   0.000  -0.000
   16        0.000  -0.000   0.000  -0.000
   17       -0.000  -0.000   0.000  -0.000
   18       -0.000  -0.000   0.000  -0.000
   19       -0.000  -0.000   0.000  -0.000
   20       -0.000  -0.000   0.000  -0.000
   21        0.000   0.000   0.000   0.000
   22        0.000   0.000   0.000   0.000
   23        0.000   0.000   0.000   0.000
   24        0.000   0.000   0.000   0.000
   25        0.000   0.000   0.000   0.000
   26        0.000   0.000   0.000   0.000
   27        0.000   0.000   0.000   0.000
   28        0.000   0.000   0.000   0.000
   29       -0.000  -0.000   0.000  -0.000
   30       -0.000  -0.000   0.000  -0.000
   31       -0.000  -0.000   0.000  -0.000
   32       -0.000  -0.000   0.000  -0.000
   33        0.000   0.000   0.000   0.000
   34        0.000   0.000   0.000   0.000
   35        0.000   0.000   0.000   0.000
   36        0.000   0.000   0.000   0.000
   37        0.000   0.000   0.000   0.000
   38        0.000   0.000   0.000   0.000
   39        0.000   0.000   0.000   0.000
   40        0.000   0.000   0.000   0.000
   41       -0.000  -0.000   0.000  -0.000
   42       -0.000  -0.000   0.000  -0.000
   43       -0.000  -0.000   0.000  -0.000
   44       -0.000  -0.000   0.000  -0.000
   45        0.000   0.000   0.000   0.000
   46        0.000   0.000   0.000   0.000
   47        0.000   0.000   0.000   0.000
   48        0.000   0.000   0.000   0.000
   49       -0.000  -0.000   0.000  -0.000
   50       -0.000  -0.000   0.000  -0.000
   51       -0.000  -0.000   0.000  -0.000
   52       -0.000  -0.000   0.000  -0.000
   53        0.000   0.000   0.000   0.000
   54        0.000   0.000   0.000   0.000
   55        0.000   0.000   0.000   0.000
   56        0.000   0.000   0.000   0.000
   57       -0.000  -0.000   0.000  -0.000
   58       -0.000  -0.000   0.000  -0.000
   59       -0.000  -0.000   0.000  -0.000
   60       -0.000  -0.000   0.000  -0.000
[...]
  422       -0.000   0.000   0.000  -0.000
  423       -0.000   0.000   0.000  -0.000
  424       -0.000   0.000   0.000  -0.000
  425        0.000  -0.000   0.000   0.000
  426        0.000  -0.000   0.000   0.000
  427        0.000  -0.000   0.000   0.000
  428        0.000  -0.000   0.000   0.000
  429        0.000   0.000   0.000   0.000
  430        0.000   0.000   0.000   0.000
  431        0.000   0.000   0.000   0.000
  432        0.000   0.000   0.000   0.000
  433        0.000  -0.000   0.000   0.000
  434        0.000  -0.000   0.000   0.000
  435        0.000  -0.000   0.000   0.000
  436        0.000  -0.000   0.000   0.000
tot          0.000  -0.000   0.000   0.000